(set-logic QF_UF)
(declare-fun A0 () Bool)
(declare-fun A1 () Bool)
(declare-fun A2 () Bool)
(declare-fun A3 () Bool)
(declare-fun A4 () Bool)
(declare-fun A5 () Bool)
(declare-fun A6 () Bool)
(declare-fun A7 () Bool)
(declare-fun A8 () Bool)
(declare-fun A9 () Bool)
(declare-fun A10 () Bool)
(declare-fun A11 () Bool)
(declare-fun A12 () Bool)
(declare-fun A13 () Bool)
(declare-fun A14 () Bool)
(declare-fun A15 () Bool)
(declare-fun A16 () Bool)
(declare-fun A17 () Bool)
(declare-fun A18 () Bool)
(declare-fun A19 () Bool)
(declare-fun A20 () Bool)
(declare-fun A21 () Bool)
(declare-fun A22 () Bool)
(declare-fun A23 () Bool)
(declare-fun A24 () Bool)
(assert (let ((.def_0 (not A4))) (let ((.def_1 (or A8 .def_0))) (let ((.def_2 (not .def_1))) (let ((.def_3 (not A18))) (let ((.def_4 (not A10))) (let ((.def_5 (and .def_4 .def_3))) (let ((.def_6 (not .def_5))) (let ((.def_7 (and .def_6 .def_2))) (let ((.def_8 (not A19))) (let ((.def_9 (not A5))) (let ((.def_10 (and .def_9 .def_8))) (let ((.def_11 (not .def_10))) (let ((.def_12 (not A7))) (let ((.def_13 (and .def_12 A7))) (let ((.def_14 (or .def_13 .def_11))) (let ((.def_15 (not .def_14))) (let ((.def_16 (and .def_15 .def_7))) (let ((.def_17 (or A11 A20))) (let ((.def_18 (not A14))) (let ((.def_19 (or .def_8 .def_18))) (let ((.def_20 (and .def_19 .def_17))) (let ((.def_21 (not .def_20))) (let ((.def_22 (not A6))) (let ((.def_23 (not A2))) (let ((.def_24 (or .def_23 .def_22))) (let ((.def_25 (not .def_24))) (let ((.def_26 (not A13))) (let ((.def_27 (or .def_23 .def_26))) (let ((.def_28 (not .def_27))) (let ((.def_29 (and .def_28 .def_25))) (let ((.def_30 (or .def_29 .def_21))) (let ((.def_31 (and .def_30 .def_16))) (let ((.def_32 (not .def_31))) (let ((.def_33 (not A11))) (let ((.def_34 (not A3))) (let ((.def_35 (or .def_34 .def_33))) (let ((.def_36 (not .def_35))) (let ((.def_37 (not A1))) (let ((.def_38 (or A11 .def_37))) (let ((.def_39 (not .def_38))) (let ((.def_40 (and .def_39 .def_36))) (let ((.def_41 (or A9 .def_26))) (let ((.def_42 (not .def_41))) (let ((.def_43 (and A11 A19))) (let ((.def_44 (not .def_43))) (let ((.def_45 (= .def_44 .def_42))) (let ((.def_46 (not .def_45))) (let ((.def_47 (and .def_46 .def_40))) (let ((.def_48 (not .def_47))) (let ((.def_49 (and A21 A13))) (let ((.def_50 (not .def_49))) (let ((.def_51 (and A1 A4))) (let ((.def_52 (and .def_51 .def_50))) (let ((.def_53 (not .def_52))) (let ((.def_54 (and A17 A24))) (let ((.def_55 (not .def_54))) (let ((.def_56 (not A12))) (let ((.def_57 (= .def_56 .def_9))) (let ((.def_58 (or .def_57 .def_55))) (let ((.def_59 (and .def_58 .def_53))) (let ((.def_60 (and .def_59 .def_48))) (let ((.def_61 (and .def_60 .def_32))) (let ((.def_62 (not .def_61))) (let ((.def_63 (not A0))) (let ((.def_64 (or .def_63 A13))) (let ((.def_65 (not .def_64))) (let ((.def_66 (not A22))) (let ((.def_67 (= A12 .def_66))) (let ((.def_68 (and .def_67 .def_65))) (let ((.def_69 (not .def_68))) (let ((.def_70 (not A9))) (let ((.def_71 (and .def_70 A11))) (let ((.def_72 (not .def_71))) (let ((.def_73 (and .def_12 .def_34))) (let ((.def_74 (not .def_73))) (let ((.def_75 (or .def_74 .def_72))) (let ((.def_76 (not .def_75))) (let ((.def_77 (and .def_76 .def_69))) (let ((.def_78 (not .def_77))) (let ((.def_79 (or A22 A15))) (let ((.def_80 (not .def_79))) (let ((.def_81 (or A4 .def_34))) (let ((.def_82 (not .def_81))) (let ((.def_83 (or .def_82 .def_80))) (let ((.def_84 (not .def_83))) (let ((.def_85 (not A23))) (let ((.def_86 (or A12 .def_85))) (let ((.def_87 (not .def_86))) (let ((.def_88 (or A7 A8))) (let ((.def_89 (and .def_88 .def_87))) (let ((.def_90 (not .def_89))) (let ((.def_91 (and .def_90 .def_84))) (let ((.def_92 (not .def_91))) (let ((.def_93 (or .def_92 .def_78))) (let ((.def_94 (not .def_93))) (let ((.def_95 (and A4 .def_66))) (let ((.def_96 (not A16))) (let ((.def_97 (or A8 .def_96))) (let ((.def_98 (not .def_97))) (let ((.def_99 (and .def_98 .def_95))) (let ((.def_100 (not .def_99))) (let ((.def_101 (or A13 .def_63))) (let ((.def_102 (not .def_101))) (let ((.def_103 (or A14 A2))) (let ((.def_104 (and .def_103 .def_102))) (let ((.def_105 (not .def_104))) (let ((.def_106 (or .def_105 .def_100))) (let ((.def_107 (not .def_106))) (let ((.def_108 (and A19 .def_18))) (let ((.def_109 (not .def_108))) (let ((.def_110 (= .def_23 .def_12))) (let ((.def_111 (not .def_110))) (let ((.def_112 (and .def_111 .def_109))) (let ((.def_113 (not .def_112))) (let ((.def_114 (and A8 .def_56))) (let ((.def_115 (not .def_114))) (let ((.def_116 (or .def_33 A2))) (let ((.def_117 (not .def_116))) (let ((.def_118 (or .def_117 .def_115))) (let ((.def_119 (and .def_118 .def_113))) (let ((.def_120 (and .def_119 .def_107))) (let ((.def_121 (not .def_120))) (let ((.def_122 (or .def_121 .def_94))) (let ((.def_123 (not .def_122))) (let ((.def_124 (and .def_123 .def_62))) (let ((.def_125 (not .def_124))) .def_125)))))))))))))))))))))))))))))))))))))))))))))))))))))))))))))))))))))))))))))))))))))))))))))))))))))))))))))))))))))))))))))))
(check-sat)
